NAME : pr226.64007.tour
COMMENT : Length = 64007
COMMENT : Found by LKH [Keld Helsgaun] Sat May 25 06:41:11 2013
TYPE : TOUR
DIMENSION : 46
TOUR_SECTION
1
2
8
72
71
69
66
65
19
20
64
57
56
50
21
22
28
49
48
46
43
42
39
40
41
94
144
151
157
159
168
183
187
193
201
206
214
221
222
132
133
107
114
80
79
73
-1
EOF
